certificates/rado_a9_c263_N30.cnf
c Rad2 upper bound instance: x1 + 9*x2 - x3 = 263, interval [1,30]
p cnf 30 162
1 8 30 0
-1 -8 -30 0
2 9 30 0
-2 -9 -30 0
1 3 29 0
-1 -3 -29 0
3 10 30 0
-3 -10 -30 0
2 4 29 0
-2 -4 -29 0
4 11 30 0
-4 -11 -30 0
3 5 29 0
-3 -5 -29 0
5 12 30 0
-5 -12 -30 0
4 6 29 0
-4 -6 -29 0
6 13 30 0
-6 -13 -30 0
5 7 29 0
-5 -7 -29 0
7 14 30 0
-7 -14 -30 0
6 8 29 0
-6 -8 -29 0
8 15 30 0
-8 -15 -30 0
7 9 29 0
-7 -9 -29 0
9 16 30 0
-9 -16 -30 0
8 10 29 0
-8 -10 -29 0
10 17 30 0
-10 -17 -30 0
9 11 29 0
-9 -11 -29 0
11 18 30 0
-11 -18 -30 0
1 12 28 0
-1 -12 -28 0
10 12 29 0
-10 -12 -29 0
12 19 30 0
-12 -19 -30 0
2 13 28 0
-2 -13 -28 0
11 13 29 0
-11 -13 -29 0
13 20 30 0
-13 -20 -30 0
3 14 28 0
-3 -14 -28 0
12 14 29 0
-12 -14 -29 0
14 21 30 0
-14 -21 -30 0
4 15 28 0
-4 -15 -28 0
13 15 29 0
-13 -15 -29 0
15 22 30 0
-15 -22 -30 0
5 16 28 0
-5 -16 -28 0
14 16 29 0
-14 -16 -29 0
16 23 30 0
-16 -23 -30 0
6 17 28 0
-6 -17 -28 0
15 17 29 0
-15 -17 -29 0
17 24 30 0
-17 -24 -30 0
7 18 28 0
-7 -18 -28 0
16 18 29 0
-16 -18 -29 0
18 25 30 0
-18 -25 -30 0
8 19 28 0
-8 -19 -28 0
17 19 29 0
-17 -19 -29 0
19 26 30 0
-19 -26 -30 0
9 20 28 0
-9 -20 -28 0
18 20 29 0
-18 -20 -29 0
20 27 30 0
-20 -27 -30 0
1 21 27 0
-1 -21 -27 0
10 21 28 0
-10 -21 -28 0
19 21 29 0
-19 -21 -29 0
21 28 30 0
-21 -28 -30 0
2 22 27 0
-2 -22 -27 0
11 22 28 0
-11 -22 -28 0
20 22 29 0
-20 -22 -29 0
22 29 30 0
-22 -29 -30 0
3 23 27 0
-3 -23 -27 0
12 23 28 0
-12 -23 -28 0
21 23 29 0
-21 -23 -29 0
23 30 0
-23 -30 0
4 24 27 0
-4 -24 -27 0
13 24 28 0
-13 -24 -28 0
22 24 29 0
-22 -24 -29 0
5 25 27 0
-5 -25 -27 0
14 25 28 0
-14 -25 -28 0
23 25 29 0
-23 -25 -29 0
6 26 27 0
-6 -26 -27 0
15 26 28 0
-15 -26 -28 0
24 26 29 0
-24 -26 -29 0
7 27 0
-7 -27 0
16 27 28 0
-16 -27 -28 0
25 27 29 0
-25 -27 -29 0
8 27 28 0
-8 -27 -28 0
17 28 0
-17 -28 0
26 28 29 0
-26 -28 -29 0
9 27 29 0
-9 -27 -29 0
18 28 29 0
-18 -28 -29 0
27 29 0
-27 -29 0
1 26 30 0
-1 -26 -30 0
10 27 30 0
-10 -27 -30 0
19 28 30 0
-19 -28 -30 0
28 29 30 0
-28 -29 -30 0
