certificates/rado_a9_c263_N30.drat
-29 -30 0
-30 0
23 0
29 0
-27 0
-21 0
-25 0
7 0
20 0
10 0
1 0
14 0
28 0
18 0
5 0
0
